param n := 60;
param c := 10000
param : V : p w :=
   0	 376	 366
   1	 278	 268
   2	 376	 366
   3	 440	 430
   4	 273	 263
   5	 317	 307
   6	 424	 414
   7	 297	 287
   8	 309	 299
   9	 505	 495
  10	 261	 251
  11	 264	 254
  12	 484	 474
  13	 262	 252
  14	 284	 274
  15	 380	 370
  16	 279	 269
  17	 371	 361
  18	 483	 473
  19	 262	 252
  20	 285	 275
  21	 482	 472
  22	 269	 259
  23	 279	 269
  24	 454	 444
  25	 268	 258
  26	 308	 298
  27	 449	 439
  28	 283	 273
  29	 298	 288
  30	 455	 445
  31	 282	 272
  32	 293	 283
  33	 429	 419
  34	 271	 261
  35	 330	 320
  36	 373	 363
  37	 281	 271
  38	 376	 366
  39	 365	 355
  40	 283	 273
  41	 382	 372
  42	 476	 466
  43	 272	 262
  44	 282	 272
  45	 367	 357
  46	 302	 292
  47	 361	 351
  48	 405	 395
  49	 265	 255
  50	 360	 350
  51	 360	 350
  52	 313	 303
  53	 357	 347
  54	 460	 450
  55	 262	 252
  56	 308	 298
  57	 420	 410
  58	 285	 275
  59	 325	 315
;

set E :=
   0	   2
   0	   5
   0	   7
   0	   8
   0	  10
   0	  11
   0	  14
   0	  16
   0	  18
   0	  24
   0	  25
   0	  26
   0	  27
   0	  28
   0	  30
   0	  32
   0	  37
   0	  39
   0	  40
   0	  41
   0	  46
   0	  47
   0	  49
   0	  50
   0	  53
   0	  55
   0	  59
   1	   3
   1	   5
   1	   6
   1	   8
   1	  12
   1	  13
   1	  18
   1	  19
   1	  20
   1	  22
   1	  24
   1	  26
   1	  29
   1	  32
   1	  37
   1	  38
   1	  39
   1	  42
   1	  44
   1	  48
   1	  51
   1	  52
   1	  56
   1	  57
   1	  58
   1	  59
   2	   8
   2	   9
   2	  11
   2	  12
   2	  13
   2	  14
   2	  15
   2	  18
   2	  19
   2	  20
   2	  22
   2	  24
   2	  28
   2	  30
   2	  31
   2	  33
   2	  34
   2	  35
   2	  37
   2	  39
   2	  40
   2	  41
   2	  44
   2	  45
   2	  46
   2	  52
   2	  56
   2	  58
   3	   4
   3	   5
   3	   9
   3	  12
   3	  16
   3	  19
   3	  20
   3	  22
   3	  24
   3	  25
   3	  27
   3	  31
   3	  32
   3	  33
   3	  36
   3	  38
   3	  39
   3	  40
   3	  44
   3	  45
   3	  46
   3	  52
   3	  53
   3	  55
   3	  57
   3	  58
   3	  59
   4	   5
   4	   7
   4	   9
   4	  10
   4	  12
   4	  15
   4	  16
   4	  18
   4	  23
   4	  25
   4	  26
   4	  29
   4	  30
   4	  31
   4	  32
   4	  33
   4	  35
   4	  36
   4	  37
   4	  38
   4	  40
   4	  41
   4	  42
   4	  43
   4	  44
   4	  47
   4	  49
   4	  51
   4	  53
   4	  54
   4	  55
   4	  56
   4	  57
   4	  58
   4	  59
   5	   8
   5	  12
   5	  15
   5	  17
   5	  20
   5	  21
   5	  23
   5	  26
   5	  27
   5	  28
   5	  29
   5	  31
   5	  32
   5	  36
   5	  37
   5	  39
   5	  40
   5	  44
   5	  48
   5	  49
   5	  50
   5	  51
   5	  57
   6	   7
   6	  13
   6	  14
   6	  16
   6	  19
   6	  20
   6	  22
   6	  23
   6	  24
   6	  36
   6	  39
   6	  41
   6	  46
   6	  47
   6	  48
   6	  50
   6	  55
   6	  56
   6	  57
   6	  58
   7	   8
   7	   9
   7	  10
   7	  14
   7	  15
   7	  16
   7	  17
   7	  18
   7	  19
   7	  22
   7	  23
   7	  24
   7	  25
   7	  29
   7	  30
   7	  31
   7	  33
   7	  35
   7	  36
   7	  41
   7	  46
   7	  47
   7	  51
   7	  54
   7	  58
   7	  59
   8	  10
   8	  12
   8	  13
   8	  19
   8	  21
   8	  22
   8	  24
   8	  29
   8	  31
   8	  34
   8	  35
   8	  39
   8	  41
   8	  42
   8	  43
   8	  48
   8	  51
   8	  52
   8	  54
   8	  57
   8	  58
   8	  59
   9	  12
   9	  13
   9	  15
   9	  16
   9	  18
   9	  19
   9	  20
   9	  21
   9	  24
   9	  26
   9	  27
   9	  28
   9	  29
   9	  31
   9	  36
   9	  38
   9	  39
   9	  40
   9	  41
   9	  42
   9	  43
   9	  45
   9	  46
   9	  47
   9	  49
   9	  52
   9	  53
   9	  57
   9	  58
   9	  59
  10	  12
  10	  16
  10	  17
  10	  18
  10	  20
  10	  23
  10	  24
  10	  25
  10	  26
  10	  31
  10	  32
  10	  33
  10	  34
  10	  35
  10	  40
  10	  42
  10	  44
  10	  45
  10	  46
  10	  49
  10	  50
  10	  54
  10	  55
  10	  56
  10	  58
  10	  59
  11	  12
  11	  13
  11	  17
  11	  22
  11	  24
  11	  25
  11	  27
  11	  28
  11	  30
  11	  31
  11	  33
  11	  35
  11	  38
  11	  40
  11	  42
  11	  44
  11	  46
  11	  47
  11	  49
  11	  52
  11	  55
  12	  13
  12	  15
  12	  18
  12	  19
  12	  20
  12	  21
  12	  22
  12	  23
  12	  24
  12	  25
  12	  26
  12	  30
  12	  32
  12	  33
  12	  34
  12	  35
  12	  36
  12	  38
  12	  40
  12	  41
  12	  42
  12	  44
  12	  45
  12	  46
  12	  47
  12	  49
  12	  50
  12	  53
  12	  54
  12	  55
  13	  15
  13	  20
  13	  21
  13	  24
  13	  26
  13	  27
  13	  31
  13	  32
  13	  33
  13	  34
  13	  36
  13	  37
  13	  38
  13	  39
  13	  42
  13	  43
  13	  45
  13	  46
  13	  50
  13	  51
  13	  52
  13	  53
  13	  55
  13	  56
  13	  58
  14	  17
  14	  19
  14	  21
  14	  22
  14	  24
  14	  25
  14	  26
  14	  27
  14	  28
  14	  29
  14	  38
  14	  39
  14	  40
  14	  41
  14	  42
  14	  46
  14	  47
  14	  48
  14	  51
  14	  52
  14	  55
  14	  56
  14	  59
  15	  16
  15	  18
  15	  19
  15	  23
  15	  26
  15	  30
  15	  31
  15	  34
  15	  35
  15	  37
  15	  38
  15	  40
  15	  43
  15	  45
  15	  47
  15	  48
  15	  49
  15	  51
  15	  52
  15	  53
  15	  54
  15	  55
  15	  59
  16	  22
  16	  25
  16	  26
  16	  27
  16	  28
  16	  29
  16	  31
  16	  35
  16	  38
  16	  45
  16	  47
  16	  51
  16	  52
  16	  54
  16	  58
  16	  59
  17	  18
  17	  19
  17	  20
  17	  23
  17	  25
  17	  26
  17	  29
  17	  31
  17	  33
  17	  42
  17	  46
  17	  47
  17	  50
  17	  51
  17	  52
  17	  53
  17	  56
  17	  58
  18	  22
  18	  23
  18	  24
  18	  26
  18	  30
  18	  31
  18	  34
  18	  37
  18	  38
  18	  41
  18	  42
  18	  43
  18	  47
  18	  48
  18	  49
  18	  51
  18	  52
  18	  53
  18	  54
  18	  55
  18	  57
  18	  58
  18	  59
  19	  20
  19	  24
  19	  25
  19	  26
  19	  28
  19	  29
  19	  30
  19	  33
  19	  40
  19	  41
  19	  42
  19	  43
  19	  44
  19	  46
  19	  47
  19	  48
  19	  50
  19	  52
  19	  54
  19	  55
  19	  57
  19	  58
  19	  59
  20	  22
  20	  25
  20	  27
  20	  30
  20	  32
  20	  33
  20	  34
  20	  35
  20	  36
  20	  37
  20	  38
  20	  40
  20	  41
  20	  43
  20	  47
  20	  49
  20	  50
  20	  54
  20	  55
  20	  56
  20	  57
  20	  58
  20	  59
  21	  22
  21	  24
  21	  26
  21	  27
  21	  28
  21	  34
  21	  35
  21	  36
  21	  37
  21	  38
  21	  39
  21	  40
  21	  42
  21	  44
  21	  45
  21	  46
  21	  47
  21	  50
  21	  51
  21	  53
  21	  55
  21	  56
  22	  23
  22	  25
  22	  28
  22	  31
  22	  34
  22	  35
  22	  36
  22	  37
  22	  38
  22	  40
  22	  41
  22	  42
  22	  43
  22	  44
  22	  45
  22	  46
  22	  47
  22	  48
  22	  50
  22	  51
  22	  52
  22	  53
  22	  54
  22	  59
  23	  27
  23	  29
  23	  32
  23	  35
  23	  37
  23	  38
  23	  42
  23	  43
  23	  45
  23	  49
  23	  51
  23	  56
  23	  58
  24	  26
  24	  27
  24	  29
  24	  30
  24	  33
  24	  34
  24	  36
  24	  37
  24	  39
  24	  40
  24	  42
  24	  46
  24	  50
  24	  51
  24	  52
  24	  54
  24	  55
  24	  57
  24	  58
  25	  28
  25	  32
  25	  37
  25	  39
  25	  40
  25	  42
  25	  43
  25	  46
  25	  47
  25	  51
  25	  52
  25	  54
  25	  55
  25	  59
  26	  27
  26	  28
  26	  29
  26	  33
  26	  35
  26	  36
  26	  41
  26	  42
  26	  43
  26	  44
  26	  45
  26	  46
  26	  47
  26	  48
  26	  55
  26	  56
  26	  57
  27	  28
  27	  29
  27	  30
  27	  31
  27	  37
  27	  40
  27	  41
  27	  42
  27	  44
  27	  45
  27	  46
  27	  49
  27	  55
  27	  57
  27	  58
  27	  59
  28	  29
  28	  31
  28	  34
  28	  35
  28	  39
  28	  41
  28	  43
  28	  44
  28	  51
  28	  52
  28	  53
  28	  54
  28	  56
  28	  58
  28	  59
  29	  30
  29	  35
  29	  37
  29	  38
  29	  39
  29	  41
  29	  44
  29	  46
  29	  47
  29	  48
  29	  49
  29	  52
  29	  53
  29	  56
  30	  31
  30	  32
  30	  34
  30	  36
  30	  38
  30	  39
  30	  40
  30	  41
  30	  42
  30	  44
  30	  45
  30	  46
  30	  47
  30	  52
  30	  53
  30	  54
  30	  56
  30	  58
  30	  59
  31	  38
  31	  40
  31	  42
  31	  47
  31	  48
  31	  49
  31	  50
  31	  52
  31	  53
  31	  57
  32	  33
  32	  34
  32	  38
  32	  41
  32	  44
  32	  48
  32	  49
  32	  50
  32	  51
  32	  55
  32	  56
  32	  59
  33	  34
  33	  35
  33	  37
  33	  39
  33	  40
  33	  41
  33	  42
  33	  43
  33	  46
  33	  47
  33	  49
  33	  50
  33	  53
  33	  56
  33	  58
  33	  59
  34	  36
  34	  37
  34	  38
  34	  39
  34	  42
  34	  43
  34	  44
  34	  46
  34	  47
  34	  48
  34	  51
  34	  53
  34	  54
  35	  36
  35	  40
  35	  42
  35	  43
  35	  45
  35	  46
  35	  48
  35	  52
  35	  55
  35	  58
  36	  37
  36	  40
  36	  43
  36	  44
  36	  46
  36	  47
  36	  51
  36	  52
  36	  54
  36	  59
  37	  39
  37	  40
  37	  42
  37	  47
  37	  48
  37	  50
  37	  51
  37	  53
  37	  54
  38	  40
  38	  41
  38	  42
  38	  43
  38	  45
  38	  46
  38	  47
  38	  48
  38	  49
  38	  50
  38	  51
  38	  54
  38	  55
  38	  56
  38	  59
  39	  41
  39	  42
  39	  43
  39	  44
  39	  47
  39	  48
  39	  51
  39	  52
  39	  53
  39	  54
  39	  55
  40	  41
  40	  43
  40	  44
  40	  45
  40	  46
  40	  47
  40	  48
  40	  49
  40	  54
  40	  57
  40	  59
  41	  42
  41	  44
  41	  50
  41	  52
  41	  53
  41	  54
  41	  55
  41	  56
  41	  57
  41	  58
  41	  59
  42	  43
  42	  44
  42	  49
  42	  50
  42	  52
  42	  54
  42	  56
  42	  58
  42	  59
  43	  44
  43	  45
  43	  46
  43	  47
  43	  49
  43	  51
  43	  52
  43	  53
  43	  55
  43	  56
  43	  57
  43	  59
  44	  45
  44	  46
  44	  48
  44	  50
  44	  54
  44	  58
  44	  59
  45	  47
  45	  48
  45	  50
  45	  51
  45	  52
  45	  55
  45	  58
  46	  47
  46	  48
  46	  50
  46	  54
  46	  55
  46	  56
  46	  59
  47	  48
  47	  50
  47	  51
  47	  52
  47	  55
  47	  56
  47	  57
  48	  53
  48	  54
  48	  55
  48	  57
  49	  51
  49	  53
  49	  54
  49	  56
  49	  57
  49	  58
  50	  53
  50	  54
  50	  55
  50	  58
  51	  52
  51	  55
  51	  57
  51	  58
  51	  59
  52	  53
  52	  57
  53	  54
  53	  59
  54	  56
  54	  57
  54	  58
  54	  59
  55	  56
  55	  57
  55	  58
  55	  59
  56	  58
  57	  58
  57	  59
  58	  59
;
